f:-20216113
solution:
30 69 195 109 172 175 193 145 61 179 23 29 161 6 177 72 10 143 140 89 191 176 39 188 71 28 125 102 81 116 113 1 131 42 192 151 150 82 164 142 38 108 34 26 13 62 162 22 94 118 64 184 173 12 190 86 96 58 111 156 144 19 56 78 114 194 53 169 18 54 14 88 126 153 8 129 163 198 66 166 137 152 73 24 138 44 182 104 33 37 186 17 171 148 167 110 67 31 170 74 154 168 124 187 49 146 75 3 112 117 80 92 121 98 189 40 21 178 55 5 84 165 77 115 130 174 27 103 65 68 91 43 158 134 119 90 160 155 93 196 107 9 197 135 25 123 141 45 36 87 76 52 70 59 57 7 101 100 180 4 159 60 15 11 133 97 157 83 147 105 20 128 99 48 35 136 181 127 41 0 120 79 132 95 51 139 199 122 183 47 32 2 46 106 185 85 63 149 50 16 
